(set-logic LIA)
(synth-fun next ((brake Int) (distance Int) (speed Int) (throttle Int) (ignition Bool) (time Int) ) Int
	((Start Int) (Var Int) (StartBool Bool))
	((Start Int (
				 1
				 3
				 5
				 (ite StartBool Start Start)))

	(Var Int (
			 0
			 1
			 2
			 4
			 5
			 8
			 9
			 488
			 1367
			 brake
			 distance
			 speed
			 throttle
			 time
			 (+ Var Var)						
			 (- Var Var)						
			 (* Var Var)))

	(StartBool Bool (
				 	 ignition
					(= Var Var)						
					(>= Var Var)						
					(<= Var Var)						
					(and StartBool StartBool)			
					(or  StartBool StartBool)				
					(not StartBool)))))

(constraint (= (next 0 0 0 0 false 1981 ) 5))
(constraint (= (next 0 0 3 5 true 844 ) 1))
(constraint (= (next 0 0 9 5 true 1494 ) 3))
(constraint (= (next 0 1 21 9 true 1150 ) 5))

(check-synth)
